experiment/data/lkh-res/Vrp-Set-X-n195/Vrp-Set-X-n195-lkh/0.lkh1.vrp
NAME : 0
COMMENT : CVRP Instance
TYPE : CVRP
DIMENSION : 195
EDGE_WEIGHT_TYPE : EUC_2D
CAPACITY : 181
NODE_COORD_SECTION
1	50000	50000
2	69100	72900
3	97800	82800
4	42700	36700
5	77700	54300
6	19000	59600
7	77300	75000
8	23400	72700
9	85100	35800
10	14000	6900
11	89100	28500
12	46700	1300
13	53700	16200
14	63600	35500
15	21300	28400
16	7500	87700
17	38400	81400
18	60600	17300
19	7600	23600
20	8600	73300
21	64200	6100
22	30300	26100
23	77100	77500
24	10700	26400
25	76300	4300
26	81100	87300
27	3800	17000
28	82200	92000
29	90700	79200
30	53900	27300
31	57600	83600
32	49100	41100
33	43000	72500
34	72700	24800
35	53200	82500
36	45700	21800
37	39800	15300
38	94200	59700
39	800	33000
40	63700	8500
41	7500	78100
42	57800	63500
43	56000	18800
44	2700	52300
45	43200	19800
46	35900	69100
47	69500	37200
48	20300	30700
49	64100	38900
50	83600	61200
51	37500	49900
52	81800	98000
53	57700	22600
54	88900	25900
55	51600	32400
56	10200	34600
57	31800	97600
58	22300	1100
59	48400	24500
60	36500	98200
61	64800	79000
62	87800	26100
63	60000	80000
64	49300	72200
65	54900	21400
66	71400	91800
67	63800	16600
68	45200	17200
69	71100	68700
70	92400	90500
71	32600	66200
72	78600	20300
73	2400	3200
74	52900	66100
75	84300	24800
76	11500	44900
77	8200	97100
78	87600	64400
79	32200	2400
80	64200	81000
81	68500	60700
82	14100	82400
83	35100	73200
84	64100	95400
85	33000	94100
86	83000	18800
87	46900	25000
88	97000	81200
89	72300	36000
90	27400	23800
91	66800	10300
92	56200	8200
93	26900	14700
94	13500	49300
95	89500	95300
96	93000	72900
97	57900	97200
98	90100	98700
99	54600	10200
100	66400	47900
101	96700	39300
102	38800	76700
103	97700	99500
104	96800	43400
105	51700	38200
106	97400	45500
107	53700	16000
108	45700	100
109	55600	9100
110	99500	96900
111	76800	43200
112	99100	100000
113	29500	70400
114	80200	44600
115	78500	35800
116	57600	10800
117	59200	69400
118	52700	10900
119	60700	34700
120	69300	47000
121	69000	1000
122	84300	95500
123	76700	40100
124	85400	52400
125	32500	77800
126	46500	88500
127	41500	72100
128	88900	99300
129	95500	94300
130	39400	76900
131	58400	47900
132	54500	6600
133	49600	70000
134	94200	99100
135	88800	43600
136	98000	29000
137	95800	47500
138	44400	75400
139	58300	83500
140	43500	76100
141	88700	92500
142	91900	93200
143	99700	37100
144	71000	30000
145	59700	54700
146	25300	97100
147	37200	79400
148	64800	45000
149	43800	87100
150	75800	51300
151	63800	46900
152	31300	68200
153	72800	14300
154	85200	97000
155	45800	78700
156	63500	2400
157	75200	46300
158	61600	53500
159	94400	38100
160	52400	48200
161	55000	13300
162	56400	4400
163	62500	79900
164	66000	42800
165	57500	12000
166	43300	84700
167	65700	52400
168	51600	1200
169	76600	27000
170	35500	61500
171	26500	18300
172	98400	95200
173	36100	74900
174	46400	64200
175	91900	38000
176	94100	99500
177	63800	50800
178	69900	63300
179	77300	59900
180	49200	75400
181	55900	10800
182	23100	77300
183	25000	65700
184	58100	46700
185	27500	75500
186	38100	87000
187	98300	44500
188	98900	45500
189	65400	37700
190	52000	8700
191	36500	72600
192	64600	43800
193	34900	69600
194	49000	87600
195	21100	80800
DEMAND_SECTION
1	0
2	79
3	84
4	100
5	23
6	32
7	90
8	8
9	50
10	29
11	96
12	26
13	17
14	92
15	41
16	16
17	95
18	41
19	69
20	30
21	83
22	11
23	84
24	38
25	29
26	88
27	33
28	77
29	76
30	74
31	16
32	31
33	33
34	76
35	16
36	28
37	67
38	22
39	61
40	72
41	27
42	96
43	2
44	88
45	88
46	6
47	22
48	7
49	20
50	69
51	72
52	58
53	87
54	32
55	25
56	4
57	61
58	1
59	61
60	84
61	75
62	16
63	75
64	100
65	87
66	30
67	6
68	8
69	79
70	31
71	2
72	53
73	75
74	76
75	94
76	16
77	87
78	58
79	13
80	92
81	89
82	93
83	15
84	90
85	5
86	35
87	43
88	64
89	35
90	17
91	9
92	59
93	98
94	10
95	2
96	89
97	5
98	17
99	19
100	43
101	50
102	86
103	27
104	6
105	34
106	46
107	39
108	12
109	7
110	76
111	30
112	24
113	42
114	89
115	64
116	29
117	27
118	49
119	54
120	73
121	90
122	12
123	42
124	3
125	36
126	84
127	13
128	52
129	28
130	17
131	21
132	37
133	72
134	16
135	52
136	83
137	45
138	86
139	2
140	80
141	36
142	89
143	89
144	56
145	19
146	36
147	86
148	78
149	45
150	3
151	72
152	82
153	67
154	65
155	26
156	20
157	80
158	67
159	24
160	42
161	95
162	6
163	78
164	92
165	34
166	50
167	93
168	38
169	48
170	73
171	48
172	23
173	66
174	24
175	6
176	41
177	61
178	12
179	44
180	40
181	49
182	23
183	15
184	45
185	7
186	55
187	26
188	14
189	19
190	87
191	49
192	11
193	48
194	64
195	54
DEPOT_SECTION
1
-1
EOF
