experiment/data/lkh-res/Vrp-Set-X-n195/Vrp-Set-X-n195-lkh/0.lkh1.tour
NAME : 0.4694494.tour
COMMENT : Length = 4694494
COMMENT : Found by LKH-3 [Keld Helsgaun] Tue Apr  9 04:00:08 2024
TYPE : TOUR
DIMENSION : 245
TOUR_SECTION
1
160
107
4
206
42
133
127
227
33
126
194
229
46
77
16
41
20
183
211
100
157
78
207
148
164
192
208
161
92
109
99
210
74
170
32
197
11
54
72
209
186
85
149
166
155
196
131
167
158
200
135
175
159
136
62
232
87
190
118
43
214
98
128
154
122
66
97
228
101
143
123
220
141
95
134
103
112
110
245
34
169
144
243
111
75
86
47
225
30
53
49
215
63
84
31
205
94
76
44
39
56
236
22
90
171
93
48
198
142
129
172
176
218
153
9
115
238
138
35
163
242
83
102
140
241
89
120
151
203
177
184
51
202
67
116
165
65
55
213
80
26
212
25
121
156
18
201
91
21
40
13
222
117
61
2
204
174
130
180
64
224
179
28
52
139
221
81
150
114
237
124
38
137
106
188
187
104
189
219
14
119
105
199
145
29
23
234
24
19
27
15
217
60
57
146
226
96
50
5
244
68
37
58
73
10
223
70
3
88
233
45
36
59
235
181
132
162
168
12
108
79
240
17
147
230
71
195
82
6
216
69
7
178
231
193
113
8
152
239
191
173
125
182
185
-1
EOF
